100 76118

 360 448
700 754
819 146
30 388
779 785
988 249
108 526
844 462
935 13
602 903
717 384
891 556
968 887
959 399
960 19
445 575
893 491
438 751
732 419
890 337
606 419
457 915
615 916
735 612
698 675
981 928
696 122
495 432
674 44
247 872
543 920
564 317
857 381
588 145
897 327
439 363
278 50
552 65
613 355
111 800
385 164
833 141
761 966
191 826
490 128
694 398
426 933
405 880
335 463
209 751
22 836
678 808
611 187
208 720
8 732
702 912
687 190
785 388
529 429
602 858
653 284
657 864
166 237
849 194
496 287
590 771
429 758
774 136
163 792
366 783
526 171
239 159
72 201
445 487
655 557
822 962
509 776
795 583
269 504
753 876
415 371
245 103
675 125
60 313
6 976
709 995
982 798
570 458
817 230
407 658
217 882
930 197
26 885
815 733
5 423
986 572
532 610
390 171
710 382
571 173
